Maximize

x_0_0 + x_0_1 + x_1_0 + x_1_1 + x_2_0 + x_2_1 + x_3_0 + x_3_1 + x_4_0 + x_4_1


Subject To

a0: x_0_0 + x_0_1 <= 1
a1: x_1_0 + x_1_1 <= 1
a2: x_2_0 + x_2_1 <= 1
a3: x_3_0 + x_3_1 <= 1
a4: x_4_0 + x_4_1 <= 1
b0: 2 x_0_0 + 4 x_1_0 + 3 x_2_0 + 1 x_3_0 + 6 x_4_0 <= 4
b1: 2 x_0_1 + 4 x_1_1 + 3 x_2_1 + 1 x_3_1 + 6 x_4_1 <= 6
c0: 0 x_0_0 + x_0_0 < 1
c1: 0 x_0_0 + x_1_0 < 1
c2: 1 x_0_0 + x_2_0 < 1
c3: 1 x_0_0 + x_3_0 < 1
c4: 1 x_0_0 + x_4_0 < 1
c5: 0 x_0_1 + x_0_1 < 1
c6: 0 x_0_1 + x_1_1 < 1
c7: 1 x_0_1 + x_2_1 < 1
c8: 1 x_0_1 + x_3_1 < 1
c9: 1 x_0_1 + x_4_1 < 1
c10: 0 x_1_0 + x_0_0 < 1
c11: 0 x_1_0 + x_1_0 < 1
c12: 1 x_1_0 + x_2_0 < 1
c13: 0 x_1_0 + x_3_0 < 1
c14: 1 x_1_0 + x_4_0 < 1
c15: 0 x_1_1 + x_0_1 < 1
c16: 0 x_1_1 + x_1_1 < 1
c17: 1 x_1_1 + x_2_1 < 1
c18: 0 x_1_1 + x_3_1 < 1
c19: 1 x_1_1 + x_4_1 < 1
c20: 1 x_2_0 + x_0_0 < 1
c21: 1 x_2_0 + x_1_0 < 1
c22: 0 x_2_0 + x_2_0 < 1
c23: 0 x_2_0 + x_3_0 < 1
c24: 1 x_2_0 + x_4_0 < 1
c25: 1 x_2_1 + x_0_1 < 1
c26: 1 x_2_1 + x_1_1 < 1
c27: 0 x_2_1 + x_2_1 < 1
c28: 0 x_2_1 + x_3_1 < 1
c29: 1 x_2_1 + x_4_1 < 1
c30: 1 x_3_0 + x_0_0 < 1
c31: 0 x_3_0 + x_1_0 < 1
c32: 0 x_3_0 + x_2_0 < 1
c33: 0 x_3_0 + x_3_0 < 1
c34: 1 x_3_0 + x_4_0 < 1
c35: 1 x_3_1 + x_0_1 < 1
c36: 0 x_3_1 + x_1_1 < 1
c37: 0 x_3_1 + x_2_1 < 1
c38: 0 x_3_1 + x_3_1 < 1
c39: 1 x_3_1 + x_4_1 < 1
c40: 1 x_4_0 + x_0_0 < 1
c41: 1 x_4_0 + x_1_0 < 1
c42: 1 x_4_0 + x_2_0 < 1
c43: 1 x_4_0 + x_3_0 < 1
c44: 0 x_4_0 + x_4_0 < 1
c45: 1 x_4_1 + x_0_1 < 1
c46: 1 x_4_1 + x_1_1 < 1
c47: 1 x_4_1 + x_2_1 < 1
c48: 1 x_4_1 + x_3_1 < 1
c49: 0 x_4_1 + x_4_1 < 1



Bounds


x_0_0 <= 1
x_0_1 <= 1
x_1_0 <= 1
x_1_1 <= 1
x_2_0 <= 1
x_2_1 <= 1
x_3_0 <= 1
x_3_1 <= 1
x_4_0 <= 1
x_4_1 <= 1



Binary

x_0_0 x_0_1 x_1_0 x_1_1 x_2_0 x_2_1 x_3_0 x_3_1 x_4_0 x_4_1 x_0_0 x_0_1 x_1_0 x_1_1 x_2_0 x_2_1 x_3_0 x_3_1 x_4_0 x_4_1

 


End
